NAME : STSP_175-2over3
COMMENT : Length = 1645
COMMENT : Found by LKH-3 [Keld Helsgaun]
TYPE : TOUR
DIMENSION : 175
TOUR_SECTION
17
122
114
163
114
28
72
28
4
152
15
152
75
21
147
87
125
168
38
86
31
86
63
174
132
37
139
165
3
172
69
123
166
5
1
61
93
61
101
71
143
68
143
71
12
40
149
155
136
90
145
14
127
48
127
78
142
88
115
53
7
53
115
120
170
36
8
46
76
74
103
167
26
23
70
150
118
156
94
113
160
24
55
44
41
106
80
64
80
18
65
29
19
59
16
56
158
56
140
35
105
22
135
33
100
35
140
133
131
57
131
133
169
117
2
84
10
153
10
119
96
173
112
50
112
151
54
27
104
99
51
79
164
107
34
148
34
60
6
134
6
138
30
49
39
121
43
82
67
85
130
32
161
109
20
171
92
58
62
9
129
137
47
124
45
146
111
144
141
-1
EOF
